(set-logic QF_S)
(declare-fun sigmaStar_safe_48 () String)
(declare-fun b_sigmaStar_safe_48 () Bool)
(declare-fun sigmaStar_safe_49 () String)
(declare-fun b_sigmaStar_safe_49 () Bool)
(declare-fun literal_28 () String)
(declare-fun b_literal_28 () Bool)
(declare-fun sigmaStar_2057 () String)
(declare-fun b_sigmaStar_2057 () Bool)
(declare-fun sigmaStar_361 () String)
(declare-fun b_sigmaStar_361 () Bool)
(declare-fun sigmaStar_1365 () String)
(declare-fun b_sigmaStar_1365 () Bool)
(declare-fun sigmaStar_1969 () String)
(declare-fun b_sigmaStar_1969 () Bool)
(declare-fun sigmaStar_773 () String)
(declare-fun b_sigmaStar_773 () Bool)
(declare-fun sigmaStar_877 () String)
(declare-fun b_sigmaStar_877 () Bool)
(declare-fun literal_65 () String)
(declare-fun b_literal_65 () Bool)
(declare-fun sigmaStar_1482 () String)
(declare-fun b_sigmaStar_1482 () Bool)
(declare-fun sigmaStar_483 () String)
(declare-fun b_sigmaStar_483 () Bool)
(declare-fun sigmaStar_087 () String)
(declare-fun b_sigmaStar_087 () Bool)
(declare-fun literal_66 () String)
(declare-fun b_literal_66 () Bool)
(declare-fun sigmaStar_1589 () String)
(declare-fun b_sigmaStar_1589 () Bool)
(declare-fun literal_84 () String)
(declare-fun b_literal_84 () Bool)
(declare-fun literal_82 () String)
(declare-fun b_literal_82 () Bool)
(declare-fun literal_92 () String)
(declare-fun b_literal_92 () Bool)
(declare-fun sigmaStar_996 () String)
(declare-fun b_sigmaStar_996 () Bool)
(declare-fun sigmaStar_1297 () String)
(declare-fun b_sigmaStar_1297 () Bool)
(declare-fun literal_99 () String)
(declare-fun b_literal_99 () Bool)
(declare-fun sigmaStar_199 () String)
(declare-fun b_sigmaStar_199 () Bool)
(declare-fun literal_100 () String)
(declare-fun b_literal_100 () Bool)
(declare-fun literal_114 () String)
(declare-fun b_literal_114 () Bool)
(declare-fun literal_119 () String)
(declare-fun b_literal_119 () Bool)
(declare-fun sigmaStar_5106 () String)
(declare-fun b_sigmaStar_5106 () Bool)
(declare-fun literal_121 () String)
(declare-fun b_literal_121 () Bool)
(declare-fun sigmaStar_6108 () String)
(declare-fun b_sigmaStar_6108 () Bool)
(declare-fun literal_126 () String)
(declare-fun b_literal_126 () Bool)
(declare-fun sigmaStar_2110 () String)
(declare-fun b_sigmaStar_2110 () Bool)
(declare-fun literal_141 () String)
(declare-fun b_literal_141 () Bool)
(declare-fun literal_143 () String)
(declare-fun b_literal_143 () Bool)
(declare-fun sigmaStar_16113 () String)
(declare-fun b_sigmaStar_16113 () Bool)
(declare-fun sigmaStar_11114 () String)
(declare-fun b_sigmaStar_11114 () Bool)
(declare-fun literal_146 () String)
(declare-fun b_literal_146 () Bool)
(declare-fun sigmaStar_17116 () String)
(declare-fun b_sigmaStar_17116 () Bool)
(declare-fun literal_149 () String)
(declare-fun b_literal_149 () Bool)
(declare-fun literal_145 () String)
(declare-fun b_literal_145 () Bool)
(declare-fun sigmaStar_10119 () String)
(declare-fun b_sigmaStar_10119 () Bool)
(declare-fun literal_170 () String)
(declare-fun b_literal_170 () Bool)
(declare-fun literal_176 () String)
(declare-fun b_literal_176 () Bool)
(declare-fun sigmaStar_18122 () String)
(declare-fun b_sigmaStar_18122 () Bool)
(declare-fun literal_182 () String)
(declare-fun b_literal_182 () Bool)
(declare-fun literal_184 () String)
(declare-fun b_literal_184 () Bool)
(declare-fun literal_181 () String)
(declare-fun b_literal_181 () Bool)
(declare-fun literal_186 () String)
(declare-fun b_literal_186 () Bool)
(declare-fun literal_185 () String)
(declare-fun b_literal_185 () Bool)
(declare-fun literal_192 () String)
(declare-fun b_literal_192 () Bool)
(declare-fun literal_196 () String)
(declare-fun b_literal_196 () Bool)
(declare-fun atkPtn () String)
(declare-fun b_atkPtn () Bool)
(declare-fun x_21 () String)
(declare-fun b_x_21 () Bool)
(declare-fun x_25 () String)
(declare-fun b_x_25 () Bool)
(declare-fun x_30 () String)
(declare-fun b_x_30 () Bool)
(declare-fun x_31 () String)
(declare-fun b_x_31 () Bool)
(declare-fun x_36 () String)
(declare-fun b_x_36 () Bool)
(declare-fun x_41 () String)
(declare-fun b_x_41 () Bool)
(declare-fun x_46 () String)
(declare-fun b_x_46 () Bool)
(declare-fun x_51 () String)
(declare-fun b_x_51 () Bool)
(declare-fun x_56 () String)
(declare-fun b_x_56 () Bool)
(declare-fun x_57 () String)
(declare-fun b_x_57 () Bool)
(declare-fun x_58 () String)
(declare-fun b_x_58 () Bool)
(declare-fun x_59 () String)
(declare-fun b_x_59 () Bool)
(declare-fun x_60 () String)
(declare-fun b_x_60 () Bool)
(declare-fun x_61 () String)
(declare-fun b_x_61 () Bool)
(declare-fun x_62 () String)
(declare-fun b_x_62 () Bool)
(declare-fun x_68 () String)
(declare-fun b_x_68 () Bool)
(declare-fun x_69 () String)
(declare-fun b_x_69 () Bool)
(declare-fun x_70 () String)
(declare-fun b_x_70 () Bool)
(declare-fun x_74 () String)
(declare-fun b_x_74 () Bool)
(declare-fun x_75 () String)
(declare-fun b_x_75 () Bool)
(declare-fun x_76 () String)
(declare-fun b_x_76 () Bool)
(declare-fun x_77 () String)
(declare-fun b_x_77 () Bool)
(declare-fun x_78 () String)
(declare-fun b_x_78 () Bool)
(declare-fun x_79 () String)
(declare-fun b_x_79 () Bool)
(declare-fun x_80 () String)
(declare-fun b_x_80 () Bool)
(declare-fun x_81 () String)
(declare-fun b_x_81 () Bool)
(declare-fun x_83 () String)
(declare-fun b_x_83 () Bool)
(declare-fun x_85 () String)
(declare-fun b_x_85 () Bool)
(declare-fun x_86 () String)
(declare-fun b_x_86 () Bool)
(declare-fun x_87 () String)
(declare-fun b_x_87 () Bool)
(declare-fun x_88 () String)
(declare-fun b_x_88 () Bool)
(declare-fun x_89 () String)
(declare-fun b_x_89 () Bool)
(declare-fun x_93 () String)
(declare-fun b_x_93 () Bool)
(declare-fun x_94 () String)
(declare-fun b_x_94 () Bool)
(declare-fun x_96 () String)
(declare-fun b_x_96 () Bool)
(declare-fun x_97 () String)
(declare-fun b_x_97 () Bool)
(declare-fun x_98 () String)
(declare-fun b_x_98 () Bool)
(declare-fun x_101 () String)
(declare-fun b_x_101 () Bool)
(declare-fun x_102 () String)
(declare-fun b_x_102 () Bool)
(declare-fun x_103 () String)
(declare-fun b_x_103 () Bool)
(declare-fun x_104 () String)
(declare-fun b_x_104 () Bool)
(declare-fun x_105 () String)
(declare-fun b_x_105 () Bool)
(declare-fun x_106 () String)
(declare-fun b_x_106 () Bool)
(declare-fun x_107 () String)
(declare-fun b_x_107 () Bool)
(declare-fun x_108 () String)
(declare-fun b_x_108 () Bool)
(declare-fun x_109 () String)
(declare-fun b_x_109 () Bool)
(declare-fun x_110 () String)
(declare-fun b_x_110 () Bool)
(declare-fun x_111 () String)
(declare-fun b_x_111 () Bool)
(declare-fun x_112 () String)
(declare-fun b_x_112 () Bool)
(declare-fun x_113 () String)
(declare-fun b_x_113 () Bool)
(declare-fun x_116 () String)
(declare-fun b_x_116 () Bool)
(declare-fun x_120 () String)
(declare-fun b_x_120 () Bool)
(declare-fun x_123 () String)
(declare-fun b_x_123 () Bool)
(declare-fun x_124 () String)
(declare-fun b_x_124 () Bool)
(declare-fun x_125 () String)
(declare-fun b_x_125 () Bool)
(declare-fun x_127 () String)
(declare-fun b_x_127 () Bool)
(declare-fun x_128 () String)
(declare-fun b_x_128 () Bool)
(declare-fun x_129 () String)
(declare-fun b_x_129 () Bool)
(declare-fun x_130 () String)
(declare-fun b_x_130 () Bool)
(declare-fun x_131 () String)
(declare-fun b_x_131 () Bool)
(declare-fun x_132 () String)
(declare-fun b_x_132 () Bool)
(declare-fun x_133 () String)
(declare-fun b_x_133 () Bool)
(declare-fun x_134 () String)
(declare-fun b_x_134 () Bool)
(declare-fun x_135 () String)
(declare-fun b_x_135 () Bool)
(declare-fun x_136 () String)
(declare-fun b_x_136 () Bool)
(declare-fun x_137 () String)
(declare-fun b_x_137 () Bool)
(declare-fun x_138 () String)
(declare-fun b_x_138 () Bool)
(declare-fun x_139 () String)
(declare-fun b_x_139 () Bool)
(declare-fun x_140 () String)
(declare-fun b_x_140 () Bool)
(declare-fun x_142 () String)
(declare-fun b_x_142 () Bool)
(declare-fun x_144 () String)
(declare-fun b_x_144 () Bool)
(declare-fun x_147 () String)
(declare-fun b_x_147 () Bool)
(declare-fun x_148 () String)
(declare-fun b_x_148 () Bool)
(declare-fun x_150 () String)
(declare-fun b_x_150 () Bool)
(declare-fun x_151 () String)
(declare-fun b_x_151 () Bool)
(declare-fun x_152 () String)
(declare-fun b_x_152 () Bool)
(declare-fun x_153 () String)
(declare-fun b_x_153 () Bool)
(declare-fun x_154 () String)
(declare-fun b_x_154 () Bool)
(declare-fun x_155 () String)
(declare-fun b_x_155 () Bool)
(declare-fun x_156 () String)
(declare-fun b_x_156 () Bool)
(declare-fun x_157 () String)
(declare-fun b_x_157 () Bool)
(declare-fun x_158 () String)
(declare-fun b_x_158 () Bool)
(declare-fun x_159 () String)
(declare-fun b_x_159 () Bool)
(declare-fun x_160 () String)
(declare-fun b_x_160 () Bool)
(declare-fun x_161 () String)
(declare-fun b_x_161 () Bool)
(declare-fun x_162 () String)
(declare-fun b_x_162 () Bool)
(declare-fun x_163 () String)
(declare-fun b_x_163 () Bool)
(declare-fun x_164 () String)
(declare-fun b_x_164 () Bool)
(declare-fun x_165 () String)
(declare-fun b_x_165 () Bool)
(declare-fun x_166 () String)
(declare-fun b_x_166 () Bool)
(declare-fun x_167 () String)
(declare-fun b_x_167 () Bool)
(declare-fun x_168 () String)
(declare-fun b_x_168 () Bool)
(declare-fun x_169 () String)
(declare-fun b_x_169 () Bool)
(declare-fun x_171 () String)
(declare-fun b_x_171 () Bool)
(declare-fun x_172 () String)
(declare-fun b_x_172 () Bool)
(declare-fun x_173 () String)
(declare-fun b_x_173 () Bool)
(declare-fun x_174 () String)
(declare-fun b_x_174 () Bool)
(declare-fun x_175 () String)
(declare-fun b_x_175 () Bool)
(declare-fun x_177 () String)
(declare-fun b_x_177 () Bool)
(declare-fun x_178 () String)
(declare-fun b_x_178 () Bool)
(declare-fun x_179 () String)
(declare-fun b_x_179 () Bool)
(declare-fun x_180 () String)
(declare-fun b_x_180 () Bool)
(declare-fun x_183 () String)
(declare-fun b_x_183 () Bool)
(declare-fun x_187 () String)
(declare-fun b_x_187 () Bool)
(declare-fun x_188 () String)
(declare-fun b_x_188 () Bool)
(declare-fun x_189 () String)
(declare-fun b_x_189 () Bool)
(declare-fun x_190 () String)
(declare-fun b_x_190 () Bool)
(declare-fun x_191 () String)
(declare-fun b_x_191 () Bool)
(declare-fun x_193 () String)
(declare-fun b_x_193 () Bool)
(declare-fun x_194 () String)
(declare-fun b_x_194 () Bool)
(declare-fun x_195 () String)
(declare-fun b_x_195 () Bool)
(declare-fun x_197 () String)
(declare-fun b_x_197 () Bool)
(declare-fun x_198 () String)
(declare-fun b_x_198 () Bool)
(declare-fun x_199 () String)
(declare-fun b_x_199 () Bool)
(declare-fun sink () String)
(declare-fun b_sink () Bool)
(declare-fun atk_sigmaStar_1 () String)
(declare-fun atk_sigmaStar_2 () String)
(declare-fun atk_sink () String)

(assert (and b_sigmaStar_safe_48 (str.in.re sigmaStar_safe_48 (re.* (re.union (re.range "0" "9") (re.union (re.range "a" "z") (re.range "A" "Z")))))))
(assert (and b_sigmaStar_safe_49 (str.in.re sigmaStar_safe_49 (re.* (re.union (re.range "0" "9") (re.union (re.range "a" "z") (re.range "A" "Z")))))))
(assert (and b_literal_28 (= literal_28 "\x7c")))
(assert (and b_literal_65 (= literal_65 "\x7c")))
(assert (and b_literal_66 (= literal_66 "\x27")))
(assert (and b_literal_84 (= literal_84 "\x27\x2c\x27")))
(assert (and b_literal_82 (= literal_82 "\x27")))
(assert (and b_literal_92 (= literal_92 "\x7c")))
(assert (and b_literal_99 (= literal_99 "\x27\x2c\x27")))
(assert (and b_literal_100 (= literal_100 "\x27")))
(assert (and b_literal_114 (= literal_114 "\x27\x2c\x27")))
(assert (and b_literal_119 (= literal_119 "\x7c")))
(assert (and b_literal_121 (= literal_121 "\x27\x2c\x27")))
(assert (and b_literal_126 (= literal_126 "\x27\x2c\x27")))
(assert (and b_literal_141 (= literal_141 "\x27\x2c\x27")))
(assert (and b_literal_143 (= literal_143 "\x7c")))
(assert (and b_literal_146 (= literal_146 "\x27\x2c\x27")))
(assert (and b_literal_149 (= literal_149 "\x27\x2c\x27")))
(assert (and b_literal_145 (= literal_145 "\x60\x63\x75\x73\x74\x6f\x6d\x71\x33\x60\x2c\x60\x63\x75\x73\x74\x6f\x6d\x71\x34\x60\x2c\x60\x63\x75\x73\x74\x6f\x6d\x71\x35\x60\x2c\x60\x72\x61\x74\x65\x60\x2c\x60\x63\x6f\x6d\x6d\x65\x6e\x74\x73\x60\x2c\x60\x70\x72\x69\x76\x61\x74\x65\x60\x2c\x60\x61\x70\x70\x60\x29\x20\x56\x41\x4c\x55\x45\x53\x28\x27")))
(assert (and b_literal_170 (= literal_170 "\x27\x2c\x27")))
(assert (and b_literal_176 (= literal_176 "\x27\x2c")))
(assert (and b_literal_182 (= literal_182 "\x27\x2c\x27")))
(assert (and b_literal_184 (= literal_184 "\x27\x2c")))
(assert (and b_literal_181 (= literal_181 "\x49\x4e\x53\x45\x52\x54\x20\x49\x4e\x54\x4f\x20\x60\x70\x62\x6c\x67\x75\x65\x73\x74\x62\x6f\x6f\x6b\x5f\x70\x6f\x73\x74\x73\x60\x20\x28\x60\x6e\x61\x6d\x65\x60\x2c\x60\x65\x6d\x61\x69\x6c\x60\x2c\x60\x69\x70\x60\x2c\x60\x74\x69\x6d\x65\x60\x2c\x60\x77\x65\x62\x73\x69\x74\x65\x60\x2c\x60\x63\x75\x73\x74\x6f\x6d\x71\x31\x60\x2c\x60\x63\x75\x73\x74\x6f\x6d\x71\x32\x60\x2c")))
(assert (and b_literal_186 (= literal_186 "\x31")))
(assert (and b_literal_185 (= literal_185 "\x30")))
(assert (and b_literal_192 (= literal_192 "\x27\x2c")))
(assert (and b_literal_196 (= literal_196 "\x27\x29")))
(assert (str.in.re atkPtn (re.++ (re.union (str.to.re "%27") (str.to.re "'")) (str.to.re "union"))))
(assert (= atk_sink (str.++ atk_sigmaStar_1 (str.++ atkPtn atk_sigmaStar_2))))
(assert (= b_x_21 (or (and (= x_21 sigmaStar_safe_48) b_sigmaStar_safe_48) (and (= x_21 sigmaStar_safe_49) b_sigmaStar_safe_49) ) ))
(assert (= b_x_25 (and (= x_25 (str.replace x_21 "\'" "\\'") ) b_x_21) ))
(assert (= b_x_30 (and (= x_30 (str.replace x_21 "\'" "\\'") ) b_x_21) ))
(assert (= b_x_31 (and (= x_31 (str.++ x_25 literal_28) ) b_x_25 b_literal_28) ))
(assert (= b_x_36 (and (= x_36 (str.replace sigmaStar_2057 (re.++ (str.to.re "<SCRIPT" ) (re.++ (re.union (re.* re.allchar) (str.to.re "" ) ) (re.++ (str.to.re ">" ) (re.++ (re.union (re.* re.allchar) (str.to.re "" ) ) (re.++ (str.to.re "</SCRIPT" ) (re.++ (re.union (re.* re.allchar) (str.to.re "" ) ) (str.to.re ">" ))))))) "SCRIPT BLOCKED") ) b_sigmaStar_2057) ))
(assert (= b_x_41 (and (= x_41 (str.replace sigmaStar_361 "|" "&#166;") ) b_sigmaStar_361) ))
(assert (= b_x_46 (and (= x_46 (str.replace sigmaStar_1365 "\\t" "") ) b_sigmaStar_1365) ))
(assert (= b_x_51 (and (= x_51 (str.replace sigmaStar_1969 "\\n" "<BR>") ) b_sigmaStar_1969) ))
(assert (= b_x_56 (and (= x_56 (str.replace sigmaStar_773 "\\r" "") ) b_sigmaStar_773) ))
(assert (= b_x_57 (or (and (= x_57 x_56) b_x_56) (and (= x_57 x_51) b_x_51) ) ))
(assert (= b_x_58 (or (and (= x_58 x_57) b_x_57) (and (= x_58 x_46) b_x_46) ) ))
(assert (= b_x_59 (or (and (= x_59 x_58) b_x_58) (and (= x_59 x_41) b_x_41) ) ))
(assert (= b_x_60 (or (and (= x_60 x_59) b_x_59) (and (= x_60 sigmaStar_877) b_sigmaStar_877) ) ))
(assert (= b_x_61 (or (and (= x_61 x_60) b_x_60) (and (= x_61 x_36) b_x_36) ) ))
(assert (= b_x_62 (and (= x_62 (str.++ x_31 x_61) ) b_x_31 b_x_61) ))
(assert (= b_x_68 (and (= x_68 (str.replace x_21 "\'" "\\'") ) b_x_21) ))
(assert (= b_x_69 (and (= x_69 (str.++ x_30 literal_65) ) b_x_30 b_literal_65) ))
(assert (= b_x_70 (or (and (= x_70 sigmaStar_1482) b_sigmaStar_1482) (and (= x_70 x_62) b_x_62) ) ))
(assert (= b_x_74 (and (= x_74 (str.replace sigmaStar_483 "http://" "") ) b_sigmaStar_483) ))
(assert (= b_x_75 (or (and (= x_75 x_56) b_x_56) (and (= x_75 x_51) b_x_51) ) ))
(assert (= b_x_76 (or (and (= x_76 x_75) b_x_75) (and (= x_76 x_41) b_x_41) ) ))
(assert (= b_x_77 (or (and (= x_77 x_76) b_x_76) (and (= x_77 x_46) b_x_46) ) ))
(assert (= b_x_78 (or (and (= x_78 x_77) b_x_77) (and (= x_78 sigmaStar_087) b_sigmaStar_087) ) ))
(assert (= b_x_79 (or (and (= x_79 x_78) b_x_78) (and (= x_79 x_74) b_x_74) ) ))
(assert (= b_x_80 (or (and (= x_80 x_79) b_x_79) (and (= x_80 x_36) b_x_36) ) ))
(assert (= b_x_81 (and (= x_81 (str.++ literal_66 x_70) ) b_literal_66 b_x_70) ))
(assert (= b_x_83 (and (= x_83 (str.++ x_69 x_80) ) b_x_69 b_x_80) ))
(assert (= b_x_85 (or (and (= x_85 x_56) b_x_56) (and (= x_85 x_51) b_x_51) ) ))
(assert (= b_x_86 (or (and (= x_86 x_85) b_x_85) (and (= x_86 x_46) b_x_46) ) ))
(assert (= b_x_87 (or (and (= x_87 x_86) b_x_86) (and (= x_87 x_41) b_x_41) ) ))
(assert (= b_x_88 (or (and (= x_88 x_87) b_x_87) (and (= x_88 sigmaStar_1589) b_sigmaStar_1589) ) ))
(assert (= b_x_89 (or (and (= x_89 x_88) b_x_88) (and (= x_89 x_36) b_x_36) ) ))
(assert (= b_x_93 (and (= x_93 (str.++ x_81 literal_84) ) b_x_81 b_literal_84) ))
(assert (= b_x_94 (and (= x_94 (str.++ literal_82 x_89) ) b_literal_82 b_x_89) ))
(assert (= b_x_96 (and (= x_96 (str.replace x_21 "\'" "\\'") ) b_x_21) ))
(assert (= b_x_97 (and (= x_97 (str.++ x_68 literal_92) ) b_x_68 b_literal_92) ))
(assert (= b_x_98 (or (and (= x_98 sigmaStar_996) b_sigmaStar_996) (and (= x_98 x_83) b_x_83) ) ))
(assert (= b_x_101 (or (and (= x_101 x_56) b_x_56) (and (= x_101 x_51) b_x_51) ) ))
(assert (= b_x_102 (or (and (= x_102 x_101) b_x_101) (and (= x_102 x_46) b_x_46) ) ))
(assert (= b_x_103 (or (and (= x_103 x_102) b_x_102) (and (= x_103 x_41) b_x_41) ) ))
(assert (= b_x_104 (or (and (= x_104 x_103) b_x_103) (and (= x_104 sigmaStar_1297) b_sigmaStar_1297) ) ))
(assert (= b_x_105 (or (and (= x_105 x_104) b_x_104) (and (= x_105 x_36) b_x_36) ) ))
(assert (= b_x_106 (and (= x_106 (str.++ x_93 x_98) ) b_x_93 b_x_98) ))
(assert (= b_x_107 (and (= x_107 (str.++ x_94 literal_99) ) b_x_94 b_literal_99) ))
(assert (= b_x_108 (or (and (= x_108 x_56) b_x_56) (and (= x_108 x_51) b_x_51) ) ))
(assert (= b_x_109 (or (and (= x_109 x_108) b_x_108) (and (= x_109 x_46) b_x_46) ) ))
(assert (= b_x_110 (or (and (= x_110 x_109) b_x_109) (and (= x_110 x_41) b_x_41) ) ))
(assert (= b_x_111 (or (and (= x_111 x_110) b_x_110) (and (= x_111 sigmaStar_199) b_sigmaStar_199) ) ))
(assert (= b_x_112 (or (and (= x_112 x_111) b_x_111) (and (= x_112 x_36) b_x_36) ) ))
(assert (= b_x_113 (and (= x_113 (str.++ x_97 x_105) ) b_x_97 b_x_105) ))
(assert (= b_x_116 (and (= x_116 (str.++ literal_100 x_112) ) b_literal_100 b_x_112) ))
(assert (= b_x_120 (and (= x_120 (str.++ x_106 literal_114) ) b_x_106 b_literal_114) ))
(assert (= b_x_123 (and (= x_123 (str.replace x_21 "\'" "\\'") ) b_x_21) ))
(assert (= b_x_124 (and (= x_124 (str.++ x_96 literal_119) ) b_x_96 b_literal_119) ))
(assert (= b_x_125 (or (and (= x_125 x_113) b_x_113) (and (= x_125 sigmaStar_5106) b_sigmaStar_5106) ) ))
(assert (= b_x_127 (and (= x_127 (str.++ x_116 literal_121) ) b_x_116 b_literal_121) ))
(assert (= b_x_128 (or (and (= x_128 x_56) b_x_56) (and (= x_128 x_51) b_x_51) ) ))
(assert (= b_x_129 (or (and (= x_129 x_128) b_x_128) (and (= x_129 x_46) b_x_46) ) ))
(assert (= b_x_130 (or (and (= x_130 x_129) b_x_129) (and (= x_130 x_41) b_x_41) ) ))
(assert (= b_x_131 (or (and (= x_131 x_130) b_x_130) (and (= x_131 sigmaStar_6108) b_sigmaStar_6108) ) ))
(assert (= b_x_132 (or (and (= x_132 x_131) b_x_131) (and (= x_132 x_36) b_x_36) ) ))
(assert (= b_x_133 (and (= x_133 (str.++ x_120 x_125) ) b_x_120 b_x_125) ))
(assert (= b_x_134 (and (= x_134 (str.++ x_107 literal_126) ) b_x_107 b_literal_126) ))
(assert (= b_x_135 (or (and (= x_135 x_56) b_x_56) (and (= x_135 x_51) b_x_51) ) ))
(assert (= b_x_136 (or (and (= x_136 x_135) b_x_135) (and (= x_136 x_46) b_x_46) ) ))
(assert (= b_x_137 (or (and (= x_137 x_136) b_x_136) (and (= x_137 x_41) b_x_41) ) ))
(assert (= b_x_138 (or (and (= x_138 x_137) b_x_137) (and (= x_138 sigmaStar_2110) b_sigmaStar_2110) ) ))
(assert (= b_x_139 (or (and (= x_139 x_138) b_x_138) (and (= x_139 x_36) b_x_36) ) ))
(assert (= b_x_140 (and (= x_140 (str.++ x_124 x_132) ) b_x_124 b_x_132) ))
(assert (= b_x_142 (and (= x_142 (str.++ x_127 x_139) ) b_x_127 b_x_139) ))
(assert (= b_x_144 (and (= x_144 (str.++ x_133 literal_141) ) b_x_133 b_literal_141) ))
(assert (= b_x_147 (and (= x_147 (str.++ x_123 literal_143) ) b_x_123 b_literal_143) ))
(assert (= b_x_148 (or (and (= x_148 sigmaStar_16113) b_sigmaStar_16113) (and (= x_148 x_140) b_x_140) ) ))
(assert (= b_x_150 (or (and (= x_150 x_56) b_x_56) (and (= x_150 x_51) b_x_51) ) ))
(assert (= b_x_151 (or (and (= x_151 x_150) b_x_150) (and (= x_151 x_46) b_x_46) ) ))
(assert (= b_x_152 (or (and (= x_152 x_151) b_x_151) (and (= x_152 x_41) b_x_41) ) ))
(assert (= b_x_153 (or (and (= x_153 x_152) b_x_152) (and (= x_153 sigmaStar_11114) b_sigmaStar_11114) ) ))
(assert (= b_x_154 (or (and (= x_154 x_153) b_x_153) (and (= x_154 x_36) b_x_36) ) ))
(assert (= b_x_155 (and (= x_155 (str.++ x_142 literal_146) ) b_x_142 b_literal_146) ))
(assert (= b_x_156 (or (and (= x_156 x_56) b_x_56) (and (= x_156 x_51) b_x_51) ) ))
(assert (= b_x_157 (or (and (= x_157 x_156) b_x_156) (and (= x_157 x_46) b_x_46) ) ))
(assert (= b_x_158 (or (and (= x_158 x_157) b_x_157) (and (= x_158 x_41) b_x_41) ) ))
(assert (= b_x_159 (or (and (= x_159 x_158) b_x_158) (and (= x_159 sigmaStar_17116) b_sigmaStar_17116) ) ))
(assert (= b_x_160 (or (and (= x_160 x_159) b_x_159) (and (= x_160 x_36) b_x_36) ) ))
(assert (= b_x_161 (and (= x_161 (str.++ x_144 x_148) ) b_x_144 b_x_148) ))
(assert (= b_x_162 (and (= x_162 (str.++ x_134 literal_149) ) b_x_134 b_literal_149) ))
(assert (= b_x_163 (and (= x_163 (str.++ literal_145 x_154) ) b_literal_145 b_x_154) ))
(assert (= b_x_164 (or (and (= x_164 x_56) b_x_56) (and (= x_164 x_51) b_x_51) ) ))
(assert (= b_x_165 (or (and (= x_165 x_164) b_x_164) (and (= x_165 x_46) b_x_46) ) ))
(assert (= b_x_166 (or (and (= x_166 x_165) b_x_165) (and (= x_166 x_41) b_x_41) ) ))
(assert (= b_x_167 (or (and (= x_167 x_166) b_x_166) (and (= x_167 sigmaStar_10119) b_sigmaStar_10119) ) ))
(assert (= b_x_168 (or (and (= x_168 x_167) b_x_167) (and (= x_168 x_36) b_x_36) ) ))
(assert (= b_x_169 (and (= x_169 (str.++ x_147 x_160) ) b_x_147 b_x_160) ))
(assert (= b_x_171 (or (and (= x_171 x_56) b_x_56) (and (= x_171 x_51) b_x_51) ) ))
(assert (= b_x_172 (or (and (= x_172 x_171) b_x_171) (and (= x_172 x_46) b_x_46) ) ))
(assert (= b_x_173 (or (and (= x_173 x_172) b_x_172) (and (= x_173 x_41) b_x_41) ) ))
(assert (= b_x_174 (or (and (= x_174 x_173) b_x_173) (and (= x_174 x_74) b_x_74) ) ))
(assert (= b_x_175 (or (and (= x_175 x_174) b_x_174) (and (= x_175 x_36) b_x_36) ) ))
(assert (= b_x_177 (and (= x_177 (str.++ x_155 x_168) ) b_x_155 b_x_168) ))
(assert (= b_x_178 (and (= x_178 (str.++ x_161 literal_170) ) b_x_161 b_literal_170) ))
(assert (= b_x_179 (and (= x_179 (str.++ x_162 x_175) ) b_x_162 b_x_175) ))
(assert (= b_x_180 (and (= x_180 (str.++ x_163 literal_176) ) b_x_163 b_literal_176) ))
(assert (= b_x_183 (or (and (= x_183 x_169) b_x_169) (and (= x_183 sigmaStar_18122) b_sigmaStar_18122) ) ))
(assert (= b_x_187 (and (= x_187 (str.++ x_177 literal_182) ) b_x_177 b_literal_182) ))
(assert (= b_x_188 (and (= x_188 (str.++ x_178 x_183) ) b_x_178 b_x_183) ))
(assert (= b_x_189 (and (= x_189 (str.++ x_179 literal_184) ) b_x_179 b_literal_184) ))
(assert (= b_x_190 (and (= x_190 (str.++ literal_181 x_180) ) b_literal_181 b_x_180) ))
(assert (= b_x_191 (or (and (= x_191 literal_186) b_literal_186) (and (= x_191 literal_185) b_literal_185) ) ))
(assert (= b_x_193 (and (= x_193 (str.++ x_187 x_191) ) b_x_187 b_x_191) ))
(assert (= b_x_194 (and (= x_194 (str.++ x_188 literal_192) ) b_x_188 b_literal_192) ))
(assert (= b_x_195 (and (= x_195 (str.++ x_190 x_189) ) b_x_190 b_x_189) ))
(assert (= b_x_197 (and (= x_197 (str.++ x_193 literal_196) ) b_x_193 b_literal_196) ))
(assert (= b_x_198 (and (= x_198 (str.++ x_195 x_194) ) b_x_195 b_x_194) ))
(assert (= b_x_199 (and (= x_199 (str.++ x_198 x_197) ) b_x_198 b_x_197) ))
(assert (and (= sink x_199) (= sink atk_sink) b_x_199))
(assert (< 40 (+ (str.len x_70) (str.len sink)) ) )
(check-sat)
